p cnf 118 152
c ind 1 2 3 4 5 6 7 8 0
-1 1 9 0
-1 3 10 0
-5 1 11 0
-5 3 12 0
-1 5 13 0
-1 7 14 0
-5 5 15 0
-5 7 16 0
-3 1 17 0
-3 3 18 0
-7 1 19 0
-7 3 20 0
-3 5 21 0
-3 7 22 0
-7 5 23 0
-7 7 24 0
-2 2 9 0
-2 4 10 0
-6 2 11 0
-6 4 12 0
-2 6 13 0
-2 8 14 0
-6 6 15 0
-6 8 16 0
-4 2 17 0
-4 4 18 0
-8 2 19 0
-8 4 20 0
-4 6 21 0
-4 8 22 0
-8 6 23 0
-8 8 24 0
-1 -1 -9 0
-3 -1 -10 0
-5 -3 -9 0
-7 -3 -10 0
-1 -5 -11 0
-3 -5 -12 0
-5 -7 -11 0
-7 -7 -12 0
-1 -2 -13 0
-3 -2 -14 0
-5 -4 -13 0
-7 -4 -14 0
-1 -6 -15 0
-3 -6 -16 0
-5 -8 -15 0
-7 -8 -16 0
-2 -1 -17 0
-4 -1 -18 0
-6 -3 -17 0
-8 -3 -18 0
-2 -5 -19 0
-4 -5 -20 0
-6 -7 -19 0
-8 -7 -20 0
-2 -2 -21 0
-4 -2 -22 0
-6 -4 -21 0
-8 -4 -22 0
-2 -6 -23 0
-4 -6 -24 0
-6 -8 -23 0
-8 -8 -24 0
-25 -1 1 0
-26 -3 6 0
-27 -5 1 0
-28 -7 6 0
-25 -2 3 0
-26 -4 8 0
-27 -6 3 0
-28 -8 8 0
-25 -1 -1 25 0
-26 -5 -1 26 0
-25 -2 -3 25 0
-26 -6 -3 26 0
-27 -3 -5 25 0
-28 -7 -5 26 0
-27 -4 -7 25 0
-28 -8 -7 26 0
-25 -1 -2 27 0
-26 -5 -2 28 0
-25 -2 -4 27 0
-26 -6 -4 28 0
-27 -3 -6 27 0
-28 -7 -6 28 0
-27 -4 -8 27 0
-28 -8 -8 28 0
-1 -1 -1 1 0
-1 -8 -5 3 0
-8 -1 -3 5 0
-8 -8 -7 7 0
-1 -1 -2 2 0
-1 -8 -6 4 0
-8 -1 -4 6 0
-8 -8 -8 8 0
1 2 0
-1 -2 0
3 4 0
-3 -4 0
5 6 0
-5 -6 0
7 8 0
-7 -8 0
25 27 0
-25 -27 0
26 28 0
-26 -28 0
-108 -1 7 0
-108 -2 0
-109 -1 8 0
-109 -2 7 0
108 109 0
108 110 0
-110 111 112 0
-110 111 113 0
-113 114 115 0
-113 114 116 0
-116 117 118 0
-111 -3 5 0
-111 -4 0
-112 -3 6 0
-112 -4 5 0
108 109 0
108 110 0
-110 111 112 0
-110 111 113 0
-113 114 115 0
-113 114 116 0
-116 117 118 0
-114 -5 3 0
-114 -6 0
-115 -5 4 0
-115 -6 3 0
108 109 0
108 110 0
-110 111 112 0
-110 111 113 0
-113 114 115 0
-113 114 116 0
-116 117 118 0
-117 -7 1 0
-117 -8 0
-118 -7 2 0
-118 -8 1 0
108 109 0
108 110 0
-110 111 112 0
-110 111 113 0
-113 114 115 0
-113 114 116 0
-116 117 118 0
